% seed = 7189871

mint = 51;
% maxt = 216;

nActs = 42;
dur = [0,1,5,1,1,9,2,1,9,3,10,8,6,4,6,7,5,3,3,3,7,6,7,10,8,7,3,9,8,8,2,6,8,1,8,4,3,5,9,8,2,0];

nSkills = 4;
sreq = [| 0,0,0,0,
	| 3,2,4,0,
	| 3,2,0,5,
	| 3,4,4,0,
	| 4,7,0,4,
	| 0,1,5,1,
	| 4,0,5,2,
	| 0,4,5,7,
	| 0,5,4,3,
	| 2,4,0,1,
	| 5,5,6,0,
	| 0,4,3,4,
	| 6,4,2,0,
	| 0,3,2,4,
	| 0,3,5,4,
	| 7,6,0,4,
	| 0,3,5,1,
	| 2,6,4,0,
	| 6,6,3,0,
	| 3,7,7,0,
	| 0,3,3,5,
	| 0,3,2,6,
	| 4,5,4,0,
	| 6,2,6,0,
	| 5,0,3,4,
	| 5,4,2,0,
	| 0,3,3,3,
	| 0,7,4,4,
	| 7,5,0,3,
	| 0,5,2,2,
	| 4,6,0,5,
	| 2,3,0,4,
	| 3,6,7,0,
	| 1,4,3,0,
	| 5,4,4,0,
	| 4,2,0,3,
	| 4,0,3,4,
	| 0,7,6,7,
	| 4,0,4,4,
	| 4,0,4,1,
	| 5,2,0,3,
	| 0,0,0,0, |];

nResources = 30;
mastery = [| true,true,true,false,
	| false,false,true,true,
	| true,true,false,false,
	| false,false,false,true,
	| false,false,true,false,
	| true,false,false,true,
	| false,false,true,true,
	| false,false,true,false,
	| false,true,false,true,
	| true,true,false,true,
	| true,true,false,false,
	| false,false,true,false,
	| true,true,false,true,
	| false,true,false,false,
	| false,true,true,true,
	| false,true,false,true,
	| true,false,false,false,
	| true,true,false,true,
	| false,true,false,false,
	| false,false,true,false,
	| false,false,true,true,
	| true,false,true,true,
	| false,false,false,true,
	| true,false,false,false,
	| false,false,true,false,
	| true,true,false,true,
	| false,true,false,false,
	| false,false,false,true,
	| true,true,false,true,
	| true,false,false,true, |];

nPrecs = 61;
pred = [1,1,1,2,2,2,3,3,3,4,4,4,5,6,7,8,8,8,9,10,10,10,11,11,11,12,13,14,15,16,16,16,17,17,18,18,19,19,20,21,22,23,24,25,26,27,28,28,29,30,31,32,33,34,35,36,37,38,39,40,41];
succ = [2,3,4,9,5,8,17,18,14,12,6,7,32,27,33,11,30,16,10,37,15,32,20,28,13,19,27,19,36,26,31,34,21,22,20,29,25,23,41,24,35,39,28,33,36,32,34,38,37,41,37,33,35,40,40,40,39,39,42,42,42];

nUnrels = 573;
unpred = [2,2,2,2,2,2,2,2,2,2,2,2,2,2,2,3,3,3,3,3,3,3,3,3,3,3,3,3,3,3,3,3,3,4,4,4,4,4,4,4,4,4,4,4,4,4,4,4,4,4,4,4,4,4,4,4,4,4,5,5,5,5,5,5,5,5,5,5,5,5,5,5,5,5,5,5,5,5,5,5,5,5,5,5,5,5,5,5,5,5,6,6,6,6,6,6,6,6,6,6,6,6,6,6,6,6,6,6,6,6,6,6,6,6,6,6,6,6,6,6,7,7,7,7,7,7,7,7,7,7,7,7,7,7,7,7,7,7,7,7,7,7,7,7,7,7,7,7,7,7,7,8,8,8,8,8,8,8,8,8,8,8,8,8,8,9,9,9,9,9,9,9,9,9,9,9,9,9,9,9,9,9,9,9,9,9,9,9,10,10,10,10,10,10,10,10,10,10,10,10,10,10,10,10,10,10,10,10,10,10,10,11,11,11,11,11,11,11,11,11,11,11,11,11,11,11,11,11,11,12,12,12,12,12,12,12,12,12,12,12,12,12,12,12,12,12,12,12,12,12,12,13,13,13,13,13,13,13,13,13,13,13,13,13,13,13,13,13,13,13,13,13,13,13,14,14,14,14,14,14,14,14,14,14,14,14,14,14,14,14,14,14,14,14,15,15,15,15,15,15,15,15,15,15,15,15,15,15,15,15,15,15,15,15,15,15,15,15,16,16,16,16,16,16,16,16,16,16,16,16,16,16,16,16,16,16,17,17,17,17,17,17,17,17,17,17,17,17,17,17,17,18,18,18,18,18,18,18,18,18,18,18,18,18,18,18,18,18,18,19,19,19,19,19,19,19,19,19,19,19,19,19,19,19,19,20,20,20,20,20,20,20,20,20,20,20,20,20,20,20,20,20,20,20,20,21,21,21,21,21,21,21,21,21,21,21,21,21,21,22,22,22,22,22,22,22,22,22,22,22,22,22,22,22,22,22,23,23,23,23,23,23,23,23,23,23,23,23,23,23,23,23,23,24,24,24,24,24,24,24,24,24,24,24,24,25,25,25,25,25,25,25,25,25,25,25,25,25,26,26,26,26,26,26,26,26,26,26,26,26,26,27,27,27,27,27,27,27,27,27,27,28,28,28,28,28,28,28,28,28,29,29,29,29,29,29,29,29,29,29,30,30,30,30,30,30,30,30,30,30,31,31,31,31,31,31,31,31,32,32,32,32,32,32,33,33,33,33,33,33,34,34,34,34,34,34,35,35,35,35,35,36,36,36,36,37,37,37,38,38,39,39,40];
unsucc = [3,4,6,7,12,14,17,18,19,21,22,23,24,25,29,4,5,6,7,8,9,10,11,12,13,15,16,26,27,30,31,32,36,5,8,9,10,11,13,14,15,16,17,18,20,21,22,24,26,28,29,30,31,34,36,37,38,41,6,7,8,9,10,11,12,13,14,15,16,17,18,19,20,21,22,23,24,25,26,27,28,29,30,31,34,36,37,38,39,41,7,8,9,10,11,12,13,14,15,16,17,18,19,20,21,22,23,24,25,26,28,29,30,31,34,36,37,38,39,41,8,9,10,11,12,13,14,15,16,17,18,19,20,21,22,23,24,25,26,27,28,29,30,31,32,34,36,37,38,39,41,9,10,12,14,15,17,18,19,21,22,23,24,25,29,11,12,13,14,16,17,18,19,20,21,22,23,24,25,26,27,28,29,30,31,34,38,41,11,12,13,14,16,17,18,19,20,21,22,23,24,25,26,27,28,29,30,31,34,38,41,12,14,15,16,17,18,19,21,22,23,24,25,26,29,30,31,36,37,13,14,15,16,17,18,20,21,22,24,26,27,28,29,30,31,32,34,36,37,38,41,14,15,16,17,18,19,20,21,22,23,24,25,26,28,29,30,31,34,36,37,38,39,41,15,16,17,18,20,21,22,24,26,27,28,29,30,31,32,34,36,37,38,41,16,17,18,19,20,21,22,23,24,25,26,27,28,29,30,31,32,33,34,35,37,38,39,41,17,18,19,20,21,22,23,24,25,27,28,29,30,32,33,35,38,41,18,19,20,23,25,26,27,29,30,31,32,33,36,37,41,19,21,22,23,24,25,26,27,28,30,31,32,33,34,35,36,38,40,20,21,22,24,26,27,28,29,30,31,32,34,36,37,38,41,21,22,23,24,25,26,27,28,29,30,31,32,33,34,35,36,37,38,39,40,22,23,25,26,27,29,30,31,32,33,35,36,37,41,23,24,25,26,27,28,29,30,31,32,33,34,36,37,38,39,41,24,25,26,27,28,29,30,31,32,33,34,35,36,37,38,40,41,25,26,27,29,30,31,32,33,35,36,37,41,26,27,28,29,30,31,32,34,36,37,38,39,41,27,28,29,30,31,32,33,34,35,37,38,39,41,28,29,30,31,34,36,37,38,39,41,29,30,31,32,33,35,36,37,41,30,31,32,33,34,35,36,38,40,41,31,32,33,34,35,36,37,38,39,40,32,33,34,35,36,38,40,41,34,36,37,38,39,41,34,36,37,38,39,41,35,36,37,38,39,41,36,37,38,39,41,37,38,39,41,38,40,41,40,41,40,41,41];

USEFUL_RES = [{},
	{1,2,3,5,6,7,8,9,10,11,12,13,14,15,16,17,18,19,20,21,22,24,25,26,27,29,30},
	{1,2,3,4,6,7,9,10,11,13,14,15,16,17,18,19,21,22,23,24,26,27,28,29,30},
	{1,2,3,5,6,7,8,9,10,11,12,13,14,15,16,17,18,19,20,21,22,24,25,26,27,29,30},
	{1,2,3,4,6,7,9,10,11,13,14,15,16,17,18,19,21,22,23,24,26,27,28,29,30},
	{1,2,3,4,5,6,7,8,9,10,11,12,13,14,15,16,18,19,20,21,22,23,25,26,27,28,29,30},
	{1,2,3,4,5,6,7,8,9,10,11,12,13,15,16,17,18,20,21,22,23,24,25,26,28,29,30},
	{1,2,3,4,5,6,7,8,9,10,11,12,13,14,15,16,18,19,20,21,22,23,25,26,27,28,29,30},
	{1,2,3,4,5,6,7,8,9,10,11,12,13,14,15,16,18,19,20,21,22,23,25,26,27,28,29,30},
	{1,2,3,4,6,7,9,10,11,13,14,15,16,17,18,19,21,22,23,24,26,27,28,29,30},
	{1,2,3,5,6,7,8,9,10,11,12,13,14,15,16,17,18,19,20,21,22,24,25,26,27,29,30},
	{1,2,3,4,5,6,7,8,9,10,11,12,13,14,15,16,18,19,20,21,22,23,25,26,27,28,29,30},
	{1,2,3,5,6,7,8,9,10,11,12,13,14,15,16,17,18,19,20,21,22,24,25,26,27,29,30},
	{1,2,3,4,5,6,7,8,9,10,11,12,13,14,15,16,18,19,20,21,22,23,25,26,27,28,29,30},
	{1,2,3,4,5,6,7,8,9,10,11,12,13,14,15,16,18,19,20,21,22,23,25,26,27,28,29,30},
	{1,2,3,4,6,7,9,10,11,13,14,15,16,17,18,19,21,22,23,24,26,27,28,29,30},
	{1,2,3,4,5,6,7,8,9,10,11,12,13,14,15,16,18,19,20,21,22,23,25,26,27,28,29,30},
	{1,2,3,5,6,7,8,9,10,11,12,13,14,15,16,17,18,19,20,21,22,24,25,26,27,29,30},
	{1,2,3,5,6,7,8,9,10,11,12,13,14,15,16,17,18,19,20,21,22,24,25,26,27,29,30},
	{1,2,3,5,6,7,8,9,10,11,12,13,14,15,16,17,18,19,20,21,22,24,25,26,27,29,30},
	{1,2,3,4,5,6,7,8,9,10,11,12,13,14,15,16,18,19,20,21,22,23,25,26,27,28,29,30},
	{1,2,3,4,5,6,7,8,9,10,11,12,13,14,15,16,18,19,20,21,22,23,25,26,27,28,29,30},
	{1,2,3,5,6,7,8,9,10,11,12,13,14,15,16,17,18,19,20,21,22,24,25,26,27,29,30},
	{1,2,3,5,6,7,8,9,10,11,12,13,14,15,16,17,18,19,20,21,22,24,25,26,27,29,30},
	{1,2,3,4,5,6,7,8,9,10,11,12,13,15,16,17,18,20,21,22,23,24,25,26,28,29,30},
	{1,2,3,5,6,7,8,9,10,11,12,13,14,15,16,17,18,19,20,21,22,24,25,26,27,29,30},
	{1,2,3,4,5,6,7,8,9,10,11,12,13,14,15,16,18,19,20,21,22,23,25,26,27,28,29,30},
	{1,2,3,4,5,6,7,8,9,10,11,12,13,14,15,16,18,19,20,21,22,23,25,26,27,28,29,30},
	{1,2,3,4,6,7,9,10,11,13,14,15,16,17,18,19,21,22,23,24,26,27,28,29,30},
	{1,2,3,4,5,6,7,8,9,10,11,12,13,14,15,16,18,19,20,21,22,23,25,26,27,28,29,30},
	{1,2,3,4,6,7,9,10,11,13,14,15,16,17,18,19,21,22,23,24,26,27,28,29,30},
	{1,2,3,4,6,7,9,10,11,13,14,15,16,17,18,19,21,22,23,24,26,27,28,29,30},
	{1,2,3,5,6,7,8,9,10,11,12,13,14,15,16,17,18,19,20,21,22,24,25,26,27,29,30},
	{1,2,3,5,6,7,8,9,10,11,12,13,14,15,16,17,18,19,20,21,22,24,25,26,27,29,30},
	{1,2,3,5,6,7,8,9,10,11,12,13,14,15,16,17,18,19,20,21,22,24,25,26,27,29,30},
	{1,2,3,4,6,7,9,10,11,13,14,15,16,17,18,19,21,22,23,24,26,27,28,29,30},
	{1,2,3,4,5,6,7,8,9,10,11,12,13,15,16,17,18,20,21,22,23,24,25,26,28,29,30},
	{1,2,3,4,5,6,7,8,9,10,11,12,13,14,15,16,18,19,20,21,22,23,25,26,27,28,29,30},
	{1,2,3,4,5,6,7,8,9,10,11,12,13,15,16,17,18,20,21,22,23,24,25,26,28,29,30},
	{1,2,3,4,5,6,7,8,9,10,11,12,13,15,16,17,18,20,21,22,23,24,25,26,28,29,30},
	{1,2,3,4,6,7,9,10,11,13,14,15,16,17,18,19,21,22,23,24,26,27,28,29,30},
	{}];

POTENTIAL_ACT = [{2,3,4,5,6,7,8,9,10,11,12,13,14,15,16,17,18,19,20,21,22,23,24,25,26,27,28,29,30,31,32,33,34,35,36,37,38,39,40,41},
	{2,3,4,5,6,7,8,9,10,11,12,13,14,15,16,17,18,19,20,21,22,23,24,25,26,27,28,29,30,31,32,33,34,35,36,37,38,39,40,41},
	{2,3,4,5,6,7,8,9,10,11,12,13,14,15,16,17,18,19,20,21,22,23,24,25,26,27,28,29,30,31,32,33,34,35,36,37,38,39,40,41},
	{3,5,6,7,8,9,10,12,14,15,16,17,21,22,25,27,28,29,30,31,32,36,37,38,39,40,41},
	{2,4,6,7,8,9,11,12,13,14,15,17,18,19,20,21,22,23,24,25,26,27,28,30,33,34,35,37,38,39,40},
	{2,3,4,5,6,7,8,9,10,11,12,13,14,15,16,17,18,19,20,21,22,23,24,25,26,27,28,29,30,31,32,33,34,35,36,37,38,39,40,41},
	{2,3,4,5,6,7,8,9,10,11,12,13,14,15,16,17,18,19,20,21,22,23,24,25,26,27,28,29,30,31,32,33,34,35,36,37,38,39,40,41},
	{2,4,6,7,8,9,11,12,13,14,15,17,18,19,20,21,22,23,24,25,26,27,28,30,33,34,35,37,38,39,40},
	{2,3,4,5,6,7,8,9,10,11,12,13,14,15,16,17,18,19,20,21,22,23,24,25,26,27,28,29,30,31,32,33,34,35,36,37,38,39,40,41},
	{2,3,4,5,6,7,8,9,10,11,12,13,14,15,16,17,18,19,20,21,22,23,24,25,26,27,28,29,30,31,32,33,34,35,36,37,38,39,40,41},
	{2,3,4,5,6,7,8,9,10,11,12,13,14,15,16,17,18,19,20,21,22,23,24,25,26,27,28,29,30,31,32,33,34,35,36,37,38,39,40,41},
	{2,4,6,7,8,9,11,12,13,14,15,17,18,19,20,21,22,23,24,25,26,27,28,30,33,34,35,37,38,39,40},
	{2,3,4,5,6,7,8,9,10,11,12,13,14,15,16,17,18,19,20,21,22,23,24,25,26,27,28,29,30,31,32,33,34,35,36,37,38,39,40,41},
	{2,3,4,5,6,8,9,10,11,12,13,14,15,16,17,18,19,20,21,22,23,24,26,27,28,29,30,31,32,33,34,35,36,38,41},
	{2,3,4,5,6,7,8,9,10,11,12,13,14,15,16,17,18,19,20,21,22,23,24,25,26,27,28,29,30,31,32,33,34,35,36,37,38,39,40,41},
	{2,3,4,5,6,7,8,9,10,11,12,13,14,15,16,17,18,19,20,21,22,23,24,25,26,27,28,29,30,31,32,33,34,35,36,37,38,39,40,41},
	{2,3,4,5,7,10,11,13,16,18,19,20,23,24,25,26,29,31,32,33,34,35,36,37,39,40,41},
	{2,3,4,5,6,7,8,9,10,11,12,13,14,15,16,17,18,19,20,21,22,23,24,25,26,27,28,29,30,31,32,33,34,35,36,37,38,39,40,41},
	{2,3,4,5,6,8,9,10,11,12,13,14,15,16,17,18,19,20,21,22,23,24,26,27,28,29,30,31,32,33,34,35,36,38,41},
	{2,4,6,7,8,9,11,12,13,14,15,17,18,19,20,21,22,23,24,25,26,27,28,30,33,34,35,37,38,39,40},
	{2,3,4,5,6,7,8,9,10,11,12,13,14,15,16,17,18,19,20,21,22,23,24,25,26,27,28,29,30,31,32,33,34,35,36,37,38,39,40,41},
	{2,3,4,5,6,7,8,9,10,11,12,13,14,15,16,17,18,19,20,21,22,23,24,25,26,27,28,29,30,31,32,33,34,35,36,37,38,39,40,41},
	{3,5,6,7,8,9,10,12,14,15,16,17,21,22,25,27,28,29,30,31,32,36,37,38,39,40,41},
	{2,3,4,5,7,10,11,13,16,18,19,20,23,24,25,26,29,31,32,33,34,35,36,37,39,40,41},
	{2,4,6,7,8,9,11,12,13,14,15,17,18,19,20,21,22,23,24,25,26,27,28,30,33,34,35,37,38,39,40},
	{2,3,4,5,6,7,8,9,10,11,12,13,14,15,16,17,18,19,20,21,22,23,24,25,26,27,28,29,30,31,32,33,34,35,36,37,38,39,40,41},
	{2,3,4,5,6,8,9,10,11,12,13,14,15,16,17,18,19,20,21,22,23,24,26,27,28,29,30,31,32,33,34,35,36,38,41},
	{3,5,6,7,8,9,10,12,14,15,16,17,21,22,25,27,28,29,30,31,32,36,37,38,39,40,41},
	{2,3,4,5,6,7,8,9,10,11,12,13,14,15,16,17,18,19,20,21,22,23,24,25,26,27,28,29,30,31,32,33,34,35,36,37,38,39,40,41},
	{2,3,4,5,6,7,8,9,10,11,12,13,14,15,16,17,18,19,20,21,22,23,24,25,26,27,28,29,30,31,32,33,34,35,36,37,38,39,40,41}];
